50, 864525
3534, 11962
3409, 12201
3314, 12501
3390, 12108
3278, 11825
3518, 12322
3463, 11575
3411, 12042
3450, 12429
3485, 11539
3291, 11625
3298, 12355
3387, 11886
3297, 11866
3546, 11574
3510, 11761
3270, 11605
3318, 12057
3292, 12461
3424, 11724
3380, 12308
3563, 12090
3392, 11862
3264, 12137
3354, 11887
163150, 843036
159887, 832536
156624, 821031
153361, 809853
150098, 800577
146835, 789369
143572, 778041
140309, 767485
137046, 755991
133783, 744971
130520, 733465
127257, 722111
123994, 710833
120731, 699687
117468, 689327
114205, 678249
110942, 666991
107679, 655634
104416, 644704
101153, 633197
97890, 621671
94627, 610325
91364, 599118
88101, 587638
84838, 576220
